! Created with skrf 1.12.0 (http://scikit-rf.org).
# GHz S RI R 50.0 
!freq ReS11 ImS11
!
1.0 0.396398687898004 0.0
1.1125 0.3964607598417976 0.0
1.225 0.39652909083318455 0.0
1.3375 0.39660369822443253 0.0
1.45 0.3966846092918819 0.0
1.5625 0.3967718560819891 0.0
1.675 0.3968654715519942 0.0
1.7875 0.396965486853188 0.0
1.9 0.39707192941458497 0.0
2.0125 0.3971848218361883 0.0
2.125 0.3973041812605391 0.0
2.2375 0.39743001913580006 0.0
2.35 0.3975623413228095 0.0
2.4625 0.39770114835472514 0.0
2.575 0.39784643581755497 0.0
2.6875 0.39799819486873445 0.0
2.8 0.3981564128136686 0.0
2.9125 0.3983210734425032 0.0
3.025 0.3984921579264906 0.0
3.1375 0.3986696450655149 0.0
3.25 0.3988535119360587 0.0
3.3625 0.39904373427103057 0.0
3.475 0.3992402869108449 0.0
3.5875 0.3994431441698143 0.0
3.7 0.3996522801415337 0.0
3.8125 0.39986766896237874 0.0
3.925 0.40008928506690067 0.0
4.0375 0.4003171032835322 0.0
4.15 0.400551099045253 0.0
4.2625 0.4007912484833275 0.0
4.375 0.40103752832196415 0.0
4.4875 0.4012899160769886 0.0
4.6 0.4015483899954514 0.0
4.7125 0.40181292897381476 0.0
4.825 0.4020835125124452 0.0
4.9375 0.4023601206274116 0.0
5.05 0.40264273376514637 0.0
5.1625 0.4029313326571441 0.0
5.275 0.40322589820528165 0.0
5.3875 0.403526411351739 0.0
5.5 0.40383285289313664 0.0
5.6125 0.40414520334861165 0.0
5.725 0.40446344284452224 0.0
5.8375 0.4047875509105218 0.0
5.95 0.40511750633185856 0.0
6.0625 0.4054532870197877 0.0
6.175 0.4057948698722652 0.0
6.2875 0.4061422305951444 0.0
6.4 0.40649534368105433 0.0
6.5125 0.40685418215241453 0.0
6.625 0.40721871769270407 0.0
6.7375 0.40758892036439687 0.0
6.85 0.40796475871567495 0.0
6.9625 0.4083461996994901 0.0
7.075 0.4087332087243697 0.0
7.1875 0.40912574970475885 0.0
7.3 0.4095237851627563 0.0
7.4125 0.40992727634089193 0.0
7.525 0.4103361834363053 0.0
7.6375 0.41075046575762914 0.0
7.75 0.41117008209795264 0.0
7.8625 0.41159499099138575 0.0
7.975 0.41202515113962834 0.0
8.0875 0.412460521819595 0.0
8.2 0.41290106336739124 0.0
8.3125 0.4133467376964572 0.0
8.425 0.41379750883225697 0.0
8.5375 0.4142533434387498 0.0
8.65 0.4147142114520376 0.0
8.7625 0.4151800864844859 0.0
8.875 0.4156509463672641 0.0
8.9875 0.41612677353841715 0.0
9.1 0.41660755527791526 0.0
9.2125 0.4170932837498053 0.0
9.325 0.4175839559049834 0.0
9.4375 0.41807957305394694 0.0
9.55 0.41858014002280297 0.0
9.6625 0.41908566403806413 0.0
9.775 0.4195961530166611 0.0
9.8875 0.4201116133258714 0.0
10.0 0.420632047051317 0.0
